1 -1 2 0
1 1 3 0
1 -4 -5 0
1 -4 -6 0
1 -7 8 0
1 -7 6 0
1 -7 -9 0
1 10 8 0
1 10 11 0
1 10 -7 0
1 -10 12 0
1 6 13 0
1 6 14 0
1 -6 -7 0
1 -12 10 0
1 -12 14 0
1 12 7 0
1 12 -1 0
1 2 15 0
1 -2 -10 0
1 -2 7 0
1 16 15 0
1 -16 -17 0
1 16 -18 0
1 19 20 0
1 19 13 0
1 -19 6 0
1 19 9 0
1 19 11 0
1 13 20 0
1 -13 -6 0
1 -13 12 0
1 14 -21 0
1 -14 -22 0
1 -21 -20 0
1 21 -12 0
1 -11 23 0
1 8 23 0
1 -8 24 0
1 -8 14 0
1 9 -25 0
1 9 -19 0
1 -9 26 0
1 20 15 0
1 -20 -13 0
1 -20 10 0
1 -20 -27 0
1 20 9 0
1 20 -19 0
1 -28 8 0
1 23 -8 0
1 23 28 0
1 23 -29 0
1 -24 -30 0
1 -24 -31 0
1 24 -32 0
1 -33 -8 0
1 33 -31 0
1 -33 24 0
1 22 31 0
1 -22 -28 0
1 -31 -23 0
1 31 -24 0
1 -31 34 0
1 29 -33 0
1 -29 21 0
1 29 -35 0
1 29 28 0
1 29 14 0
1 30 33 0
1 -30 23 0
1 -30 -36 0
1 30 24 0
1 -30 -28 0
1 30 -26 0
1 3 37 0
1 -5 -4 0
1 5 3 0
1 38 -39 0
1 -38 40 0
1 38 41 0
1 38 42 0
1 43 -10 0
1 43 41 0
1 43 38 0
1 40 41 0
1 40 38 0
1 -41 43 0
1 -41 44 0
1 41 -45 0
1 -39 46 0
1 39 -5 0
1 39 47 0
1 39 38 0
1 39 -3 0
1 -48 39 0
1 -48 -49 0
1 48 38 0
1 45 50 0
1 45 2 0
1 51 -52 0
1 51 50 0
1 -51 41 0
1 53 -40 0
1 53 -54 0
1 53 -42 0
1 -53 55 0
1 -53 -16 0
1 -17 -21 0
1 17 -46 0
1 -17 -56 0
1 -17 57 0
1 -50 -15 0
1 -42 -15 0
1 -42 51 0
1 42 32 0
1 -52 17 0
1 -52 -58 0
1 52 51 0
1 -52 -59 0
1 59 60 0
1 59 -61 0
1 -59 -52 0
1 -59 51 0
1 59 62 0
1 59 44 0
1 -18 15 0
1 -18 28 0
1 18 -12 0
1 15 -54 0
1 15 -9 0
1 15 -18 0
1 15 -42 0
1 15 57 0
1 -32 25 0
1 32 -50 0
1 32 -56 0
1 32 -42 0
1 32 -55 0
1 25 20 0
1 -25 63 0
1 -25 64 0
1 -25 -65 0
1 25 -32 0
1 25 42 0
1 -54 27 0
1 -54 18 0
1 54 57 0
1 57 -17 0
1 57 -54 0
1 -57 -18 0
1 57 53 0
1 -57 -66 0
1 -57 26 0
1 56 60 0
1 56 67 0
1 -55 -25 0
1 55 -68 0
1 -55 53 0
1 -55 67 0
1 -27 62 0
1 27 11 0
1 -26 -60 0
1 -26 20 0
1 -26 -69 0
1 26 30 0
1 26 9 0
1 -26 -57 0
1 26 70 0
1 35 54 0
1 35 64 0
1 35 -65 0
1 35 -71 0
1 35 -29 0
1 -72 -73 0
1 -72 35 0
1 -72 29 0
1 -72 -57 0
1 -65 74 0
1 65 27 0
1 -65 32 0
1 -65 -75 0
1 -65 72 0
1 65 26 0
1 -69 -74 0
1 -69 34 0
1 -64 76 0
1 64 66 0
1 70 74 0
1 70 -16 0
1 -70 -77 0
1 -70 -78 0
1 70 -26 0
1 -79 73 0
1 -79 31 0
1 79 68 0
1 -79 -80 0
1 -34 69 0
1 -34 73 0
1 34 -30 0
1 34 65 0
1 -34 29 0
1 34 -22 0
1 81 -82 0
1 -81 73 0
1 81 83 0
1 -83 69 0
1 -83 73 0
1 -83 65 0
1 83 71 0
1 -83 -77 0
1 71 84 0
1 -71 -73 0
1 -71 85 0
1 -71 -72 0
1 73 86 0
1 73 35 0
1 73 87 0
1 73 34 0
1 80 -9 0
1 80 88 0
1 -80 72 0
1 82 74 0
1 82 87 0
1 -82 -72 0
1 86 36 0
1 86 -74 0
1 89 -90 0
1 -89 91 0
1 -85 90 0
1 -85 71 0
1 -92 -36 0
1 92 91 0
1 -91 -93 0
1 -91 -86 0
1 91 -90 0
1 90 85 0
1 -90 86 0
1 -90 -94 0
1 -90 91 0
1 95 -93 0
1 95 -96 0
1 95 -84 0
1 95 -89 0
1 95 -97 0
1 -36 -93 0
1 36 -96 0
1 36 -94 0
1 -36 -87 0
1 -36 -89 0
1 37 -98 0
1 -99 -37 0
1 -100 101 0
1 -100 -102 0
1 -103 -101 0
1 103 43 0
1 -103 -104 0
1 -98 -46 0
1 98 -105 0
1 106 -107 0
1 106 99 0
1 106 37 0
1 108 -109 0
1 108 110 0
1 -108 -99 0
1 -108 111 0
1 -109 110 0
1 109 112 0
1 -109 -113 0
1 109 37 0
1 105 -101 0
1 105 98 0
1 -105 102 0
1 114 51 0
1 114 101 0
1 -114 98 0
1 114 105 0
1 47 -106 0
1 -47 -115 0
1 -46 116 0
1 -46 -98 0
1 -46 -113 0
1 -46 117 0
1 46 -48 0
1 -46 118 0
1 119 117 0
1 -119 44 0
1 -117 -46 0
1 102 -120 0
1 102 -121 0
1 102 122 0
1 101 123 0
1 101 -114 0
1 101 47 0
1 101 100 0
1 -44 -39 0
1 -44 -61 0
1 -44 -52 0
1 44 -115 0
1 44 41 0
1 44 18 0
1 -61 -15 0
1 61 -52 0
1 -61 -44 0
1 124 116 0
1 -124 -52 0
1 -124 117 0
1 -124 115 0
1 124 -125 0
1 -124 -120 0
1 -63 116 0
1 63 49 0
1 -63 -118 0
1 -116 60 0
1 116 126 0
1 116 127 0
1 116 62 0
1 116 -124 0
1 116 -44 0
1 116 47 0
1 -116 -128 0
1 -115 63 0
1 -115 61 0
1 -115 46 0
1 -115 129 0
1 115 -127 0
1 115 -62 0
1 115 -44 0
1 -115 -47 0
1 -118 130 0
1 -118 47 0
1 131 46 0
1 131 132 0
1 -131 44 0
1 -131 118 0
1 -131 -133 0
1 -62 -60 0
1 -62 134 0
1 62 52 0
1 -60 -123 0
1 -60 -49 0
1 -127 135 0
1 127 -134 0
1 -127 136 0
1 -127 35 0
1 -127 -115 0
1 127 -130 0
1 -127 49 0
1 -127 -125 0
1 -67 -56 0
1 67 -127 0
1 67 137 0
1 -67 -133 0
1 134 60 0
1 134 -63 0
1 -134 40 0
1 134 127 0
1 -134 -62 0
1 -134 77 0
1 -134 67 0
1 -125 -76 0
1 -125 -41 0
1 125 -138 0
1 125 -77 0
1 125 66 0
1 135 127 0
1 -135 -124 0
1 -135 67 0
1 49 63 0
1 49 -62 0
1 -49 139 0
1 -49 67 0
1 -68 -54 0
1 -68 -140 0
1 66 -136 0
1 -66 -56 0
1 66 -128 0
1 76 -134 0
1 -76 58 0
1 76 -136 0
1 76 -81 0
1 76 -141 0
1 76 -142 0
1 -77 64 0
1 -77 -137 0
1 -77 -83 0
1 -136 50 0
1 136 -74 0
1 136 76 0
1 -136 68 0
1 -136 -127 0
1 136 -143 0
1 140 74 0
1 -140 -68 0
1 140 -127 0
1 -140 -144 0
1 140 77 0
1 -140 67 0
1 -58 52 0
1 -58 145 0
1 58 -127 0
1 58 -143 0
1 58 -67 0
1 -137 -68 0
1 137 -67 0
1 74 69 0
1 74 140 0
1 74 86 0
1 74 -64 0
1 75 69 0
1 -75 64 0
1 -75 80 0
1 -75 -89 0
1 -75 70 0
1 146 -147 0
1 -146 85 0
1 -146 136 0
1 146 148 0
1 146 -80 0
1 -146 140 0
1 -146 149 0
1 -150 151 0
1 -150 -152 0
1 -142 153 0
1 -142 -74 0
1 -142 -76 0
1 149 -96 0
1 -149 84 0
1 -149 -154 0
1 -149 -77 0
1 141 -56 0
1 141 155 0
1 141 -156 0
1 141 -143 0
1 -141 -77 0
1 157 75 0
1 157 -55 0
1 -157 -158 0
1 -84 159 0
1 -84 36 0
1 -84 -148 0
1 84 151 0
1 -84 80 0
1 -84 -95 0
1 -87 -84 0
1 -87 36 0
1 -87 -142 0
1 -87 -71 0
1 -87 -78 0
1 -96 -142 0
1 -96 -151 0
1 96 88 0
1 -96 -160 0
1 154 161 0
1 154 148 0
1 -154 95 0
1 154 149 0
1 151 84 0
1 -151 154 0
1 -151 162 0
1 -147 -163 0
1 147 -164 0
1 -147 151 0
1 -147 -165 0
1 148 153 0
1 148 -84 0
1 -148 146 0
1 148 163 0
1 -148 154 0
1 -148 -166 0
1 148 87 0
1 148 167 0
1 -148 78 0
1 -78 -146 0
1 78 -154 0
1 78 -87 0
1 -78 -150 0
1 -78 70 0
1 93 147 0
1 -93 90 0
1 93 151 0
1 93 -160 0
1 -93 95 0
1 -93 -91 0
1 94 93 0
1 -94 -161 0
1 -94 -91 0
1 165 168 0
1 164 -160 0
1 160 -93 0
1 160 -96 0
1 -160 164 0
1 160 154 0
1 160 169 0
1 161 -170 0
1 -161 -171 0
1 -161 -164 0
1 -161 -165 0
1 88 -172 0
1 88 94 0
1 88 -167 0
1 -88 -165 0
1 -168 163 0
1 168 173 0
1 -168 -167 0
1 -168 -165 0
1 174 161 0
1 174 -175 0
1 174 160 0
1 -174 176 0
1 174 -167 0
1 -171 -163 0
1 171 -176 0
1 169 177 0
1 -169 160 0
1 178 -177 0
1 178 175 0
1 178 172 0
1 -176 178 0
1 176 175 0
1 -176 171 0
1 -176 164 0
1 -176 -169 0
1 176 -174 0
1 175 -176 0
1 175 179 0
1 -175 178 0
1 97 180 0
1 -97 181 0
1 97 169 0
1 97 174 0
1 -97 -165 0
1 177 179 0
1 -177 -182 0
1 177 -183 0
1 177 -180 0
1 -177 184 0
1 -177 169 0
1 177 -165 0
1 185 186 0
1 185 187 0
1 185 -37 0
1 -187 -188 0
1 187 99 0
1 187 -185 0
1 189 190 0
1 189 191 0
1 104 192 0
1 -188 -104 0
1 188 -193 0
1 188 189 0
1 188 -185 0
1 194 111 0
1 186 -192 0
1 186 185 0
1 -192 -186 0
1 -111 195 0
1 111 196 0
1 -197 -114 0
1 -197 188 0
1 197 -108 0
1 197 -111 0
1 197 196 0
1 -198 199 0
1 198 -200 0
1 -198 -47 0
1 198 -191 0
1 -113 -188 0
1 -113 190 0
1 113 -195 0
1 113 201 0
1 113 198 0
1 195 104 0
1 195 202 0
1 195 -203 0
1 195 -120 0
1 195 -198 0
1 191 204 0
1 191 113 0
1 -191 -195 0
1 191 203 0
1 -190 -189 0
1 196 113 0
1 196 197 0
1 -196 -104 0
1 196 -190 0
1 196 -111 0
1 121 110 0
1 121 101 0
1 121 205 0
1 -121 -201 0
1 110 -199 0
1 -110 109 0
1 110 101 0
1 -120 -206 0
1 120 -101 0
1 120 201 0
1 120 -207 0
1 -206 199 0
1 206 -112 0
1 -206 205 0
1 206 201 0
1 206 -208 0
1 206 -102 0
1 -201 -123 0
1 -201 -200 0
1 201 110 0
1 201 -132 0
1 -201 -209 0
1 -200 -210 0
1 -200 110 0
1 -200 132 0
1 200 120 0
1 -200 121 0
1 -200 -133 0
1 -205 -211 0
1 205 -212 0
1 205 -206 0
1 -205 110 0
1 -205 -113 0
1 205 213 0
1 205 -120 0
1 199 -212 0
1 199 110 0
1 199 -203 0
1 -199 -121 0
1 199 -198 0
1 132 -112 0
1 -132 -117 0
1 -132 -62 0
1 132 -207 0
1 123 107 0
1 123 -101 0
1 123 131 0
1 -123 -207 0
1 130 -107 0
1 -130 -214 0
1 -130 -131 0
1 130 -215 0
1 130 201 0
1 -130 118 0
1 133 112 0
1 133 -216 0
1 133 -214 0
1 -133 -131 0
1 -133 -130 0
1 -133 -208 0
1 -133 207 0
1 -107 123 0
1 -107 -206 0
1 107 106 0
1 -107 -120 0
1 -107 -128 0
1 -208 -206 0
1 -208 -132 0
1 -208 -120 0
1 112 123 0
1 -112 -130 0
1 112 120 0
1 -112 -208 0
1 -112 -217 0
1 -112 -209 0
1 -129 -116 0
1 129 -135 0
1 129 213 0
1 129 115 0
1 -129 -122 0
1 129 218 0
1 128 107 0
1 -128 214 0
1 128 -131 0
1 -128 207 0
1 -219 -216 0
1 219 76 0
1 -219 220 0
1 219 122 0
1 139 214 0
1 139 -220 0
1 -139 -122 0
1 139 221 0
1 -218 -139 0
1 218 119 0
1 214 138 0
1 -122 216 0
1 -122 222 0
1 -122 -219 0
1 -122 130 0
1 -122 223 0
1 122 224 0
1 -216 225 0
1 -216 -222 0
1 216 219 0
1 216 226 0
1 -227 135 0
1 -227 74 0
1 -227 -138 0
1 138 -126 0
1 -138 228 0
1 -138 -137 0
1 138 -218 0
1 -145 -126 0
1 145 229 0
1 145 137 0
1 145 152 0
1 -145 -218 0
1 152 -145 0
1 152 -220 0
1 152 230 0
1 -152 -218 0
1 126 231 0
1 126 232 0
1 -126 -219 0
1 -126 -152 0
1 126 139 0
1 228 -145 0
1 -228 -156 0
1 -228 152 0
1 -228 -138 0
1 221 231 0
1 -221 -145 0
1 221 -227 0
1 -221 220 0
1 221 -233 0
1 -221 152 0
1 -220 234 0
1 159 84 0
1 159 -229 0
1 -159 -228 0
1 -143 87 0
1 -143 137 0
1 -143 -140 0
1 -143 157 0
1 -232 96 0
1 232 235 0
1 -232 229 0
1 232 144 0
1 156 -126 0
1 -156 -236 0
1 -229 -237 0
1 229 238 0
1 229 -239 0
1 -230 153 0
1 230 -159 0
1 230 145 0
1 -230 238 0
1 230 -143 0
1 -230 240 0
1 -241 -242 0
1 -241 -159 0
1 -241 -145 0
1 241 143 0
1 236 243 0
1 236 244 0
1 236 245 0
1 -153 93 0
1 -153 -246 0
1 -153 141 0
1 153 144 0
1 -238 247 0
1 238 -144 0
1 -239 248 0
1 239 -246 0
1 -239 -249 0
1 -239 78 0
1 -250 -229 0
1 250 -155 0
1 250 -244 0
1 -246 -136 0
1 -246 172 0
1 -246 -251 0
1 246 173 0
1 246 -167 0
1 -246 -239 0
1 -144 -252 0
1 144 -246 0
1 -144 -163 0
1 -248 -153 0
1 248 232 0
1 -248 -58 0
1 248 253 0
1 -248 250 0
1 -248 156 0
1 248 -247 0
1 -247 -254 0
1 -247 243 0
1 247 156 0
1 -247 255 0
1 -167 256 0
1 167 -158 0
1 -167 -249 0
1 167 -78 0
1 163 88 0
1 -163 144 0
1 -163 158 0
1 -173 257 0
1 -173 258 0
1 173 -172 0
1 -173 256 0
1 173 -144 0
1 -173 259 0
1 172 178 0
1 172 -88 0
1 172 144 0
1 -172 -249 0
1 -256 -260 0
1 -256 -250 0
1 256 249 0
1 -256 -184 0
1 249 -250 0
1 249 -149 0
1 -249 167 0
1 -155 -261 0
1 155 262 0
1 155 -252 0
1 155 163 0
1 155 -158 0
1 -155 -167 0
1 158 -261 0
1 -158 -262 0
1 -158 163 0
1 -158 167 0
1 -184 -166 0
1 -184 -162 0
1 184 88 0
1 -184 -160 0
1 -182 -257 0
1 -182 -161 0
1 182 252 0
1 182 -88 0
1 182 -97 0
1 -263 -257 0
1 -263 264 0
1 -263 -260 0
1 -263 -170 0
1 -263 256 0
1 263 166 0
1 263 162 0
1 260 -166 0
1 -260 -162 0
1 -260 -263 0
1 -260 249 0
1 -162 -258 0
1 -162 -179 0
1 -162 182 0
1 -162 -172 0
1 -162 151 0
1 -258 265 0
1 258 -147 0
1 258 172 0
1 -258 -266 0
1 258 180 0
1 166 -267 0
1 166 -268 0
1 -257 265 0
1 -257 269 0
1 -257 -270 0
1 -257 -184 0
1 257 -78 0
1 180 179 0
1 180 170 0
1 180 175 0
1 -180 162 0
1 180 -271 0
1 -180 272 0
1 -180 -97 0
1 179 264 0
1 179 175 0
1 -179 162 0
1 -179 -97 0
1 266 -170 0
1 -266 -183 0
1 266 162 0
1 266 -273 0
1 -274 170 0
1 274 -275 0
1 274 271 0
1 274 -273 0
1 272 276 0
1 -170 -260 0
1 170 277 0
1 170 -263 0
1 -271 274 0
1 271 260 0
1 -271 -278 0
1 271 -267 0
1 271 -180 0
1 -264 274 0
1 264 -179 0
1 -264 -180 0
1 264 -271 0
1 264 -279 0
1 -280 183 0
1 -276 275 0
1 276 -280 0
1 277 -272 0
1 277 -273 0
1 -281 -170 0
1 281 -275 0
1 281 277 0
1 281 -181 0
1 -273 266 0
1 273 -276 0
1 275 277 0
1 -275 -280 0
1 -275 273 0
1 -275 -276 0
1 181 -183 0
1 181 266 0
1 181 -97 0
1 181 276 0
1 183 277 0
1 -183 -280 0
1 183 -266 0
1 -183 281 0
1 183 276 0
1 -203 -190 0
1 -203 195 0
1 212 199 0
1 212 -193 0
1 -212 190 0
1 212 282 0
1 212 283 0
1 212 -196 0
1 -215 -204 0
1 -211 284 0
1 211 193 0
1 -211 -215 0
1 211 205 0
1 211 282 0
1 -211 133 0
1 193 203 0
1 -193 283 0
1 -283 -285 0
1 -283 213 0
1 283 -194 0
1 -283 209 0
1 -284 215 0
1 284 -282 0
1 -282 -211 0
1 282 286 0
1 -282 -203 0
1 213 -287 0
1 -213 193 0
1 -213 288 0
1 213 208 0
1 213 209 0
1 -209 204 0
1 209 -193 0
1 -209 213 0
1 209 288 0
1 209 -201 0
1 285 210 0
1 -285 112 0
1 -285 -289 0
1 -285 -283 0
1 -290 -204 0
1 -290 291 0
1 290 112 0
1 -290 -285 0
1 290 289 0
1 290 -292 0
1 -290 208 0
1 -202 -211 0
1 -202 204 0
1 -202 293 0
1 202 -225 0
1 202 -222 0
1 202 195 0
1 202 -294 0
1 -202 217 0
1 204 211 0
1 -204 293 0
1 -204 215 0
1 -204 290 0
1 204 -209 0
1 -204 -191 0
1 288 -213 0
1 -288 290 0
1 -288 209 0
1 -222 204 0
1 222 -112 0
1 -222 227 0
1 -222 -207 0
1 217 216 0
1 -217 202 0
1 -217 289 0
1 -217 138 0
1 225 291 0
1 -225 -216 0
1 -225 292 0
1 294 -289 0
1 294 292 0
1 292 -295 0
1 -292 -235 0
1 -292 210 0
1 -292 -234 0
1 292 -222 0
1 -292 296 0
1 -292 297 0
1 -292 -201 0
1 292 -294 0
1 -292 -290 0
1 210 -235 0
1 -210 298 0
1 -210 297 0
1 -210 -290 0
1 289 299 0
1 -289 222 0
1 -289 -285 0
1 289 296 0
1 289 300 0
1 -289 -294 0
1 291 225 0
1 291 -285 0
1 291 -296 0
1 -291 300 0
1 291 217 0
1 -234 -210 0
1 234 -301 0
1 234 -302 0
1 234 223 0
1 234 292 0
1 234 303 0
1 234 122 0
1 -223 -301 0
1 -223 -304 0
1 223 -305 0
1 -223 221 0
1 235 302 0
1 -235 -226 0
1 235 306 0
1 235 292 0
1 -235 307 0
1 -297 -302 0
1 297 300 0
1 297 307 0
1 305 -231 0
1 305 225 0
1 -305 297 0
1 305 -223 0
1 305 -294 0
1 305 -207 0
1 -305 308 0
1 -302 235 0
1 -302 225 0
1 -302 -309 0
1 302 310 0
1 302 223 0
1 303 311 0
1 303 -295 0
1 303 234 0
1 303 310 0
1 303 -312 0
1 303 -296 0
1 303 -294 0
1 303 308 0
1 -301 295 0
1 -301 112 0
1 301 312 0
1 -301 308 0
1 231 -306 0
1 231 233 0
1 231 -305 0
1 -231 224 0
1 233 241 0
1 -233 -228 0
1 233 -221 0
1 242 313 0
1 242 -314 0
1 242 307 0
1 244 -306 0
1 -244 -250 0
1 -244 -315 0
1 244 305 0
1 -307 254 0
1 307 316 0
1 -307 -259 0
1 -306 243 0
1 -306 297 0
1 306 316 0
1 -224 -242 0
1 -224 231 0
1 -224 -235 0
1 -224 297 0
1 -224 317 0
1 -224 -122 0
1 224 -318 0
1 226 242 0
1 -226 -319 0
1 -226 233 0
1 226 297 0
1 -226 -308 0
1 -243 313 0
1 -243 241 0
1 -243 248 0
1 -243 310 0
1 259 -237 0
1 259 254 0
1 254 237 0
1 -254 -315 0
1 -254 307 0
1 314 262 0
1 -314 243 0
1 314 -320 0
1 -314 321 0
1 -314 -259 0
1 -320 242 0
1 -320 322 0
1 -320 -262 0
1 320 244 0
1 -320 -321 0
1 -320 323 0
1 313 -242 0
1 -313 -324 0
1 313 319 0
1 313 -244 0
1 -313 315 0
1 -313 316 0
1 315 322 0
1 315 319 0
1 315 -254 0
1 315 325 0
1 251 -237 0
1 251 -248 0
1 -251 246 0
1 251 245 0
1 -251 144 0
1 252 -326 0
1 252 248 0
1 252 -246 0
1 252 -155 0
1 252 245 0
1 -323 314 0
1 323 253 0
1 -323 -155 0
1 -323 240 0
1 323 -327 0
1 -262 328 0
1 -262 255 0
1 237 -329 0
1 -237 261 0
1 -237 254 0
1 237 268 0
1 -237 -240 0
1 237 259 0
1 -240 252 0
1 -240 330 0
1 -326 321 0
1 245 254 0
1 245 321 0
1 245 259 0
1 -270 166 0
1 -270 180 0
1 270 -240 0
1 -270 -249 0
1 -261 331 0
1 -261 166 0
1 -261 -270 0
1 261 158 0
1 -268 -237 0
1 268 -166 0
1 -268 -332 0
1 -268 -333 0
1 269 331 0
1 269 -166 0
1 269 -240 0
1 -269 255 0
1 -269 332 0
1 331 -265 0
1 331 -269 0
1 331 278 0
1 -331 -323 0
1 327 -265 0
1 327 262 0
1 -327 267 0
1 -327 -144 0
1 -253 -261 0
1 253 334 0
1 255 269 0
1 -255 -253 0
1 255 330 0
1 255 270 0
1 -267 265 0
1 267 -257 0
1 267 -258 0
1 -267 -331 0
1 -267 330 0
1 -267 -332 0
1 265 258 0
1 -265 -331 0
1 -265 267 0
1 265 -162 0
1 -265 271 0
1 278 -335 0
1 279 336 0
1 -279 278 0
1 -279 -337 0
1 -279 -332 0
1 -337 -278 0
1 333 -265 0
1 -333 278 0
1 -333 -337 0
1 336 269 0
1 -336 -155 0
1 -336 278 0
1 336 -268 0
1 -332 -265 0
1 332 -336 0
1 332 267 0
1 -332 268 0
1 -332 279 0
1 293 -234 0
1 -293 202 0
1 293 289 0
1 -293 -287 0
1 304 -293 0
1 -304 -338 0
1 304 -339 0
1 304 286 0
1 299 -235 0
1 299 340 0
1 -300 339 0
1 300 341 0
1 -300 289 0
1 -300 342 0
1 -339 295 0
1 -339 -193 0
1 -339 343 0
1 339 300 0
1 -339 304 0
1 342 -295 0
1 -342 293 0
1 342 -296 0
1 342 304 0
1 -342 -283 0
1 -342 -344 0
1 338 345 0
1 -338 -304 0
1 338 -286 0
1 286 -293 0
1 286 -282 0
1 295 -231 0
1 295 -296 0
1 295 -292 0
1 -295 -303 0
1 295 -342 0
1 -295 340 0
1 296 346 0
1 296 291 0
1 -296 -347 0
1 296 -289 0
1 311 242 0
1 311 -312 0
1 -311 348 0
1 -311 342 0
1 312 -298 0
1 312 303 0
1 312 342 0
1 341 295 0
1 341 299 0
1 -341 349 0
1 -341 202 0
1 341 -296 0
1 341 350 0
1 -341 -318 0
1 346 -311 0
1 -346 -295 0
1 346 299 0
1 346 312 0
1 346 -296 0
1 -346 -318 0
1 347 -288 0
1 347 296 0
1 347 350 0
1 -340 311 0
1 340 351 0
1 340 295 0
1 340 299 0
1 -340 300 0
1 308 226 0
1 -308 -348 0
1 308 -224 0
1 310 -243 0
1 -310 -352 0
1 -310 348 0
1 310 303 0
1 310 -224 0
1 -318 346 0
1 318 -353 0
1 -318 298 0
1 318 -348 0
1 -318 -354 0
1 318 -259 0
1 349 -355 0
1 -349 309 0
1 -349 -354 0
1 -348 298 0
1 -348 -349 0
1 -348 -310 0
1 -348 312 0
1 348 -318 0
1 298 -356 0
1 -298 -348 0
1 298 -318 0
1 352 356 0
1 352 312 0
1 -352 289 0
1 352 357 0
1 -353 358 0
1 -353 352 0
1 353 -318 0
1 353 -308 0
1 316 -355 0
1 316 315 0
1 -319 -298 0
1 319 252 0
1 -319 359 0
1 319 226 0
1 319 -306 0
1 319 348 0
1 319 354 0
1 -360 -298 0
1 -360 328 0
1 -360 355 0
1 -360 -309 0
1 -328 -262 0
1 -328 -355 0
1 328 309 0
1 -328 361 0
1 328 -362 0
1 -328 -317 0
1 328 363 0
1 -354 364 0
1 -354 328 0
1 354 -319 0
1 -354 -360 0
1 309 -364 0
1 309 319 0
1 -309 -302 0
1 -309 321 0
1 309 -316 0
1 309 354 0
1 365 -328 0
1 -365 303 0
1 365 -366 0
1 -365 367 0
1 -355 319 0
1 355 366 0
1 -355 368 0
1 355 360 0
1 355 316 0
1 355 -318 0
1 -321 -313 0
1 321 361 0
1 321 -363 0
1 -322 309 0
1 -322 -361 0
1 -322 315 0
1 -322 317 0
1 369 324 0
1 369 -309 0
1 -369 361 0
1 369 368 0
1 370 324 0
1 370 269 0
1 370 -371 0
1 370 245 0
1 -370 317 0
1 -363 -370 0
1 -363 330 0
1 -363 -307 0
1 -362 322 0
1 -362 -328 0
1 -317 -370 0
1 -317 322 0
1 -317 328 0
1 -317 -321 0
1 -361 328 0
1 361 -372 0
1 -330 -373 0
1 -330 -326 0
1 330 -267 0
1 330 240 0
1 330 255 0
1 329 -324 0
1 329 -326 0
1 -329 -253 0
1 329 330 0
1 329 -245 0
1 329 255 0
1 -335 373 0
1 335 362 0
1 335 -374 0
1 -335 255 0
1 -335 -334 0
1 334 324 0
1 -334 373 0
1 -334 -253 0
1 -334 -362 0
1 334 -374 0
1 -373 329 0
1 373 -314 0
1 373 -370 0
1 -324 335 0
1 324 325 0
1 324 -369 0
1 324 334 0
1 325 -370 0
1 325 335 0
1 -325 -330 0
1 -325 -369 0
1 350 375 0
1 -350 -346 0
1 350 -353 0
1 350 341 0
1 350 -340 0
1 359 -341 0
1 -376 351 0
1 376 -375 0
1 376 -344 0
1 -343 371 0
1 343 344 0
1 -343 -359 0
1 -343 -339 0
1 -343 368 0
1 344 356 0
1 -344 377 0
1 345 359 0
1 345 -376 0
1 -345 350 0
1 375 -359 0
1 375 350 0
1 367 355 0
1 -367 343 0
1 367 -321 0
1 -356 353 0
1 -356 343 0
1 -356 -367 0
1 368 378 0
1 -368 -379 0
1 -368 -380 0
1 -368 -357 0
1 -368 -381 0
1 -368 -344 0
1 371 382 0
1 371 379 0
1 -371 -365 0
1 380 -364 0
1 380 -366 0
1 380 368 0
1 380 367 0
1 379 -356 0
1 -379 377 0
1 379 347 0
1 -379 -368 0
1 351 -356 0
1 -351 377 0
1 -351 368 0
1 -351 -376 0
1 -351 -340 0
1 366 378 0
1 366 355 0
1 -366 -381 0
1 -366 317 0
1 364 329 0
1 364 -378 0
1 364 -358 0
1 -364 317 0
1 -372 358 0
1 372 380 0
1 -372 -317 0
1 383 -357 0
1 -381 383 0
1 -381 382 0
1 -381 366 0
1 -381 -368 0
1 381 348 0
1 382 364 0
1 -382 371 0
1 -382 -381 0
1 357 372 0
1 357 352 0
1 358 -364 0
1 -358 353 0
1 358 372 0
1 -358 -366 0
1 -358 357 0
